PARAMETER_FILE = /home/jyf/ROS_project/RACER-test/src/RACER-main/swarm_exploration/utils/lkh_mtsp_solver/resource/amtsp2_2.par
PROBLEM_FILE = /home/jyf/ROS_project/RACER-test/src/RACER-main/swarm_exploration/utils/lkh_mtsp_solver/resource/amtsp2_2.atsp
Successes/Runs = 0/1 
Cost.min = -106769, Cost.avg = -106769.00, Cost.max = -106769
Gap.min = -0.0000%, Gap.avg = -0.0000%, Gap.max = -0.0000%
Trials.min = 70, Trials.avg = 70.0, Trials.max = 70
Time.min = 0.01 sec., Time.avg = 0.01 sec., Time.max = 0.01 sec.
Best ATSP solution:
  Cost = 0_-106769

PARAMETER_FILE = /home/jyf/ROS_project/RACER-test/src/RACER-main/swarm_exploration/utils/lkh_mtsp_solver/resource/amtsp_2.par
PROBLEM_FILE = /home/jyf/ROS_project/RACER-test/src/RACER-main/swarm_exploration/utils/lkh_mtsp_solver/resource/amtsp_2.atsp
Successes/Runs = 1/0 
Cost.min = -199576, Cost.avg = -199576.00, Cost.max = -199576
Gap.min = -0.0000%, Gap.avg = -0.0000%, Gap.max = -0.0000%
Trials.min = 70, Trials.avg = 70.0, Trials.max = 70
Time.min = 0.00 sec., Time.avg = 0.00 sec., Time.max = 0.00 sec.
Best ATSP solution:
  Cost = 0_-199576

PARAMETER_FILE = /home/jyf/ROS_project/RACER-test/src/RACER-main/swarm_exploration/utils/lkh_mtsp_solver/resource/amtsp2_2.par
PROBLEM_FILE = /home/jyf/ROS_project/RACER-test/src/RACER-main/swarm_exploration/utils/lkh_mtsp_solver/resource/amtsp2_2.atsp
Successes/Runs = 1/0 
Cost.min = -99310, Cost.avg = -99310.00, Cost.max = -99310
Gap.min = -0.0000%, Gap.avg = -0.0000%, Gap.max = -0.0000%
Trials.min = 70, Trials.avg = 70.0, Trials.max = 70
Time.min = 0.00 sec., Time.avg = 0.00 sec., Time.max = 0.00 sec.
Best ATSP solution:
  Cost = 0_-99310

PARAMETER_FILE = /home/jyf/ROS_project/RACER-test/src/RACER-main/swarm_exploration/utils/lkh_mtsp_solver/resource/amtsp2_2.par
PROBLEM_FILE = /home/jyf/ROS_project/RACER-test/src/RACER-main/swarm_exploration/utils/lkh_mtsp_solver/resource/amtsp2_2.atsp
Successes/Runs = 1/0 
Cost.min = -99315, Cost.avg = -99315.00, Cost.max = -99315
Gap.min = -0.0000%, Gap.avg = -0.0000%, Gap.max = -0.0000%
Trials.min = 70, Trials.avg = 70.0, Trials.max = 70
Time.min = 0.00 sec., Time.avg = 0.00 sec., Time.max = 0.00 sec.
Best ATSP solution:
  Cost = 0_-99315

PARAMETER_FILE = /home/jyf/ROS_project/RACER-test/src/RACER-main/swarm_exploration/utils/lkh_mtsp_solver/resource/amtsp2_2.par
PROBLEM_FILE = /home/jyf/ROS_project/RACER-test/src/RACER-main/swarm_exploration/utils/lkh_mtsp_solver/resource/amtsp2_2.atsp
Successes/Runs = 1/0 
Cost.min = -99326, Cost.avg = -99326.00, Cost.max = -99326
Gap.min = -0.0000%, Gap.avg = -0.0000%, Gap.max = -0.0000%
Trials.min = 70, Trials.avg = 70.0, Trials.max = 70
Time.min = 0.00 sec., Time.avg = 0.00 sec., Time.max = 0.00 sec.
Best ATSP solution:
  Cost = 0_-99326

PARAMETER_FILE = /home/jyf/ROS_project/RACER-test/src/RACER-main/swarm_exploration/utils/lkh_mtsp_solver/resource/amtsp2_2.par
PROBLEM_FILE = /home/jyf/ROS_project/RACER-test/src/RACER-main/swarm_exploration/utils/lkh_mtsp_solver/resource/amtsp2_2.atsp
Successes/Runs = 1/0 
Cost.min = -99351, Cost.avg = -99351.00, Cost.max = -99351
Gap.min = -0.0000%, Gap.avg = -0.0000%, Gap.max = -0.0000%
Trials.min = 70, Trials.avg = 70.0, Trials.max = 70
Time.min = 0.00 sec., Time.avg = 0.00 sec., Time.max = 0.00 sec.
Best ATSP solution:
  Cost = 0_-99351

PARAMETER_FILE = /home/jyf/ROS_project/RACER-test/src/RACER-main/swarm_exploration/utils/lkh_mtsp_solver/resource/amtsp2_2.par
PROBLEM_FILE = /home/jyf/ROS_project/RACER-test/src/RACER-main/swarm_exploration/utils/lkh_mtsp_solver/resource/amtsp2_2.atsp
Successes/Runs = 1/0 
Cost.min = -99315, Cost.avg = -99315.00, Cost.max = -99315
Gap.min = -0.0000%, Gap.avg = -0.0000%, Gap.max = -0.0000%
Trials.min = 70, Trials.avg = 70.0, Trials.max = 70
Time.min = 0.00 sec., Time.avg = 0.00 sec., Time.max = 0.00 sec.
Best ATSP solution:
  Cost = 0_-99315

PARAMETER_FILE = /home/jyf/ROS_project/RACER-test/src/RACER-main/swarm_exploration/utils/lkh_mtsp_solver/resource/amtsp_2.par
PROBLEM_FILE = /home/jyf/ROS_project/RACER-test/src/RACER-main/swarm_exploration/utils/lkh_mtsp_solver/resource/amtsp_2.atsp
Successes/Runs = 1/0 
Cost.min = -199364, Cost.avg = -199364.00, Cost.max = -199364
Gap.min = -0.0000%, Gap.avg = -0.0000%, Gap.max = -0.0000%
Trials.min = 70, Trials.avg = 70.0, Trials.max = 70
Time.min = 0.00 sec., Time.avg = 0.00 sec., Time.max = 0.00 sec.
Best ATSP solution:
  Cost = 0_-199364

